; benchmark generated from python API
(set-info :status unknown)
(declare-fun C () Real)
(declare-fun S_3 () Real)
(declare-fun A_1 () Real)
(declare-fun L_1 () Real)
(declare-fun S_4 () Real)
(declare-fun S_2 () Real)
(declare-fun S_0 () Real)
(declare-fun S_1 () Real)
(declare-fun L_3 () Real)
(declare-fun A_3 () Real)
(declare-fun A_4 () Real)
(declare-fun L_0 () Real)
(declare-fun A_0 () Real)
(declare-fun B () Real)
(declare-fun L_2 () Real)
(declare-fun A_2 () Real)
(assert
 (let (($x34 (>= L_0 0.0)))
 (let (($x632 (>= C 5.0)))
 (let (($x797 (>= B 5.0)))
 (let (($x2247 (<= (+ (* (- 1.0) S_4) A_3 (* (- 1.0) L_3)) 0.0)))
 (let (($x5429 (or (<= (+ (* (- 1.0) L_1) A_1 (* (- 1.0) S_2)) 0.0) (<= (+ C (* (- 1.0) S_2) S_0) 0.0))))
 (let (($x1879 (<= (+ (* (- 1.0) S_4) (* (- 1.0) L_1) A_1 (* 2.0 C)) 0.0)))
 (let (($x5516 (or $x1879 $x2247 (<= (+ (* (- 1.0) S_4) (* 3.0 C) S_0) 0.0))))
 (let (($x5859 (or (<= (+ (* (- 1.0) L_1) A_1 (* (- 1.0) S_3) C) 0.0) (not (<= 0.0 (+ L_1 (* (- 1.0) A_1) C S_0))))))
 (let (($x5856 (<= 0.0 (+ L_1 (* (- 1.0) A_1) C S_0))))
 (let ((?x227 (* (- 1.0) B)))
 (let ((?x294 (* (- 1.0) C)))
 (let ((?x363 (* (- 1.0) A_1)))
 (let ((?x253 (* (- 1.0) L_2)))
 (let (($x5809 (<= 0.0 (+ A_2 ?x253 L_1 ?x363 ?x294 ?x227))))
 (let (($x1947 (= (+ (* (- 1.0) A_2) L_2 (* (- 1.0) L_1) A_1 C B) 0.0)))
 (let (($x51 (= L_1 L_0)))
 (let (($x1497 (not $x51)))
 (let (($x61 (= L_2 L_1)))
 (let (($x8213 (or $x61 $x1497 (<= (+ (* (- 1.0) A_2) L_2 A_1 C (* (- 1.0) L_0)) 0.0))))
 (let (($x5818 (or $x61 $x5809 (<= (+ (* (- 1.0) A_2) L_2 (* 2.0 C) S_0 B) 0.0))))
 (let (($x5816 (or $x61 (<= (+ (* (- 1.0) A_2) L_2 S_4 (* (- 2.0) C) B) 0.0))))
 (let (($x1688 (<= (+ A_2 ?x253 (* (- 1.0) A_0) (* (- 2.0) C) ?x227 L_0) 0.0)))
 (let (($x71 (= L_3 L_2)))
 (let (($x1483 (not $x71)))
 (let (($x907 (<= (+ (* (- 1.0) S_4) (* (- 1.0) L_1) A_1 (* 2.0 C) ?x227) 0.0)))
 (let ((?x874 (* 2.0 C)))
 (let ((?x368 (* (- 1.0) A_3)))
 (let ((?x236 (* (- 1.0) L_1)))
 (let (($x6182 (or $x71 (= (+ ?x236 A_1 ?x368 ?x874 L_3) 0.0) (not (<= 0.0 (+ ?x236 A_1 ?x368 ?x874 L_3))))))
 (let (($x416 (<= 0.0 (+ L_1 ?x363 A_3 (* (- 2.0) C) (* (- 1.0) L_3) ?x227))))
 (let (($x5743 (not (<= 0.0 (+ ?x253 L_1)))))
 (let (($x1194 (<= (+ A_3 (* (- 3.0) C) (* (- 1.0) S_1) (* (- 1.0) L_3) ?x227) 0.0)))
 (let (($x1266 (<= (+ A_3 (* (- 4.0) C) (* (- 1.0) S_0) (* (- 1.0) L_3) ?x227) 0.0)))
 (let ((?x270 (* (- 1.0) L_3)))
 (let ((?x978 (* (- 3.0) C)))
 (let ((?x1072 (* (- 1.0) A_0)))
 (let (($x108 (>= S_1 S_0)))
 (let (($x111 (>= S_2 S_1)))
 (let (($x114 (>= S_3 S_2)))
 (let (($x119 (>= A_1 A_0)))
 (let (($x121 (>= A_3 A_2)))
 (let (($x122 (>= A_4 A_3)))
 (and (<= (+ A_2 ?x253) S_4) (<= (+ A_1 ?x236) S_3) (not (<= (+ A_2 ?x253) S_3)) $x122 $x121 $x119 $x114 $x111 $x108 (or $x51 (not (<= 0.0 (+ ?x236 L_0)))) (or $x71 (not (<= 0.0 (+ L_2 ?x270)))) (<= (+ (* (- 1.0) S_4) A_3 ?x270 ?x227) 0.0) (or $x51 (<= (+ L_1 ?x363 ?x294 S_2 B) 0.0)) (<= (+ ?x236 A_1 ?x1072 ?x294 ?x227 L_0) 0.0) (or $x51 $x61 (= (+ (* (- 1.0) A_2) L_2 ?x236 A_1 C) 0.0)) (or $x51 (<= 0.0 (+ (* (- 1.0) A_2) A_1 C)) (not $x61)) (or $x71 (<= (+ S_3 ?x368 L_3 B) 0.0)) (<= (+ ?x236 A_1 ?x294 (* (- 1.0) S_1) ?x227) 0.0) (<= (+ ?x236 A_1 (* (- 1.0) S_2) ?x227) 0.0) (<= (+ A_3 (* (- 2.0) C) (* (- 1.0) S_2) ?x270 ?x227) 0.0) (<= (+ A_3 ?x1072 ?x978 ?x270 ?x227 L_0) 0.0) $x1266 (or $x71 (<= (+ S_4 ?x368 ?x294 L_3 B) 0.0)) (or $x51 (<= (+ L_1 ?x363 S_1 B) 0.0)) (<= (+ ?x236 A_1 (* (- 1.0) S_3) C ?x227) 0.0) (<= (+ (* (- 1.0) S_3) A_3 ?x294 ?x270 ?x227) 0.0) (or $x61 $x71 (= (+ A_2 ?x253 ?x368 C L_3) 0.0)) $x1194 (or $x51 (<= (+ L_1 ?x363 C S_0 B) 0.0)) (or $x71 $x416 (<= (+ ?x368 (* 3.0 C) S_0 L_3 B) 0.0)) (or $x71 (<= (+ ?x368 ?x874 S_1 L_3 B) 0.0)) (or $x71 (<= (+ ?x368 C S_2 L_3 B) 0.0)) (or $x61 $x5743) (or $x71 (<= (+ A_2 ?x236 ?x368 C L_3) 0.0) $x5743) (or (not $x416) (= (+ ?x236 A_1 ?x368 ?x874 L_3 B) 0.0)) (or $x51 (<= 0.0 (+ ?x236 A_1 ?x368 ?x874 L_3))) $x6182 (<= (+ ?x236 A_1 (* (- 2.0) C) (* (- 1.0) S_0) ?x227) 0.0) (or (<= 0.0 (+ ?x236 A_1 ?x368 ?x874 L_3 ?x227)) $x907) (or $x51 (<= (+ L_1 ?x363 S_3 (* (- 2.0) C) B) 0.0)) (or $x51 (<= (+ S_4 L_1 ?x363 ?x978 B) 0.0)) (or $x907 $x2247) (or $x61 (<= (+ (* (- 1.0) A_2) L_2 C S_1 B) 0.0)) (or $x61 (<= (+ (* (- 1.0) A_2) L_2 S_2 B) 0.0)) (or $x61 $x1483 (<= 0.0 (+ A_2 ?x368 C))) (<= (+ A_2 ?x253 (* (- 1.0) S_3) ?x227) 0.0) (<= (+ A_2 ?x253 (* (- 2.0) C) (* (- 1.0) S_1) ?x227) 0.0) $x1688 (<= (+ A_2 ?x253 ?x294 (* (- 1.0) S_2) ?x227) 0.0) (<= (+ A_2 ?x253 ?x978 (* (- 1.0) S_0) ?x227) 0.0) (or $x61 (<= (+ (* (- 1.0) A_2) L_2 S_3 ?x294 B) 0.0)) $x5816 (or (<= (+ A_2 ?x253 (* (- 1.0) S_4) C ?x227) 0.0) $x2247) $x5818 $x8213 (or $x1947 (not $x5809)) (<= (+ (* (- 2.0) C) S_1 (* (- 1.0) S_0)) 0.0) (<= (+ ?x1072 (* (- 2.0) C) S_2 L_0) 0.0) (or $x5856 (<= (+ (* (- 1.0) S_3) ?x874 S_0) 0.0)) $x5859 (<= (+ S_4 (* (- 4.0) C) (* (- 1.0) S_1)) 0.0) (<= (+ S_4 ?x1072 (* (- 4.0) C) L_0) 0.0) (<= (+ S_3 ?x978 (* (- 1.0) S_1)) 0.0) (<= (+ S_3 ?x1072 ?x978 L_0) 0.0) (<= (+ (* (- 2.0) C) S_2 (* (- 1.0) S_1)) 0.0) (<= (+ S_3 (* (- 4.0) C) (* (- 1.0) S_0)) 0.0) (<= (+ S_4 (* (- 5.0) C) (* (- 1.0) S_0)) 0.0) $x5516 (or $x2247 (<= (+ (* (- 1.0) S_4) C S_2) 0.0)) $x5429 (<= (+ ?x1072 ?x294 S_1 L_0) 0.0) (<= (+ S_3 (* (- 2.0) C) (* (- 1.0) S_2)) 0.0) (<= (+ S_4 ?x978 (* (- 1.0) S_2)) 0.0) (or $x2247 (<= (+ (* (- 1.0) S_4) ?x874 S_1) 0.0)) $x797 $x632 $x34 (<= (+ ?x1072 S_0 L_0) 0.0) (<= (+ L_1 ?x363 S_1) 0.0) (<= (+ S_4 (* (- 1.0) A_4) L_3) 0.0) (<= (+ S_4 ?x368 L_3 ?x294) 0.0) (<= (+ (* (- 1.0) S_3) C S_1) 0.0) (<= (+ ?x978 S_2 (* (- 1.0) S_0)) 0.0) (<= (+ L_1 ?x363 ?x294 S_2) 0.0) (<= (+ S_4 (* (- 1.0) S_3) (* (- 2.0) C)) 0.0) (<= (+ S_4 L_1 ?x363 ?x978) 0.0) (<= (+ L_1 ?x363 S_3 (* (- 2.0) C)) 0.0)))))))))))))))))))))))))))))))))))))))))))))
(check-sat)
